NAME: n200q20H.tsp, 200 nodes, semilla 777
COMMENT: Problema aleatorio de norma euclidea
DIMENSION: 200
CAPACITY: 20
EDGE_WEIGHT_TYPE: EUC_2D
NODE_COORD_SECTION
1   0.0000   0.0000
2 -108.0000  76.0000
3 372.0000 -432.0000
4 -57.0000 388.0000
5 286.0000 409.0000
6 424.0000 169.0000
7  58.0000 -497.0000
8 221.0000 118.0000
9 470.0000 380.0000
10 -431.0000 -422.0000
11 305.0000 -58.0000
12 457.0000 196.0000
13 493.0000 269.0000
14 281.0000 -259.0000
15 -172.0000 -484.0000
16 263.0000 -258.0000
17 -427.0000 153.0000
18 351.0000 314.0000
19 478.0000 120.0000
20 -415.0000 -203.0000
21  20.0000 -92.0000
22 113.0000 237.0000
23  57.0000 447.0000
24 -322.0000 -129.0000
25 253.0000 -27.0000
26 -387.0000 -243.0000
27 -72.0000 212.0000
28 246.0000 -337.0000
29  71.0000 279.0000
30 351.0000 -457.0000
31 253.0000 100.0000
32 -65.0000  26.0000
33 324.0000 -23.0000
34 -354.0000 -28.0000
35 332.0000 270.0000
36 276.0000 -117.0000
37 -389.0000 -49.0000
38 191.0000 -497.0000
39 189.0000 -47.0000
40 361.0000 -152.0000
41 -322.0000 -497.0000
42 -320.0000 248.0000
43 -50.0000 -235.0000
44 143.0000 -206.0000
45 -459.0000 365.0000
46 -370.0000 -388.0000
47 311.0000 264.0000
48 382.0000  49.0000
49 -463.0000 -424.0000
50 -408.0000 354.0000
51 109.0000  -5.0000
52 -410.0000 -226.0000
53 -286.0000 306.0000
54 162.0000 -185.0000
55 -248.0000 395.0000
56 477.0000 120.0000
57 466.0000 -460.0000
58 155.0000 243.0000
59 -324.0000 -359.0000
60 -283.0000 335.0000
61 -121.0000  87.0000
62 -194.0000 371.0000
63 275.0000 -94.0000
64 -349.0000 348.0000
65 -59.0000 -76.0000
66 -91.0000 -227.0000
67 -223.0000 399.0000
68 321.0000 -473.0000
69 162.0000 325.0000
70 -335.0000 -362.0000
71 295.0000 -114.0000
72 -316.0000 -313.0000
73 -488.0000   2.0000
74 252.0000 -289.0000
75 -30.0000 -153.0000
76 215.0000 422.0000
77 -226.0000 -107.0000
78 400.0000 -212.0000
79 -255.0000 120.0000
80 -458.0000 386.0000
81 368.0000 -346.0000
82  77.0000 156.0000
83 -438.0000 -70.0000
84 171.0000 357.0000
85 -38.0000 -216.0000
86 -130.0000 -21.0000
87 397.0000 -422.0000
88 -379.0000  13.0000
89 -111.0000 -302.0000
90 -212.0000 467.0000
91 -49.0000 -336.0000
92 100.0000 -115.0000
93  18.0000  47.0000
94  -6.0000 143.0000
95  40.0000 -189.0000
96 -233.0000  91.0000
97 -175.0000 -250.0000
98 -288.0000 -97.0000
99 -291.0000 -69.0000
100 -170.0000 -56.0000
101 459.0000 -494.0000
102 312.0000 391.0000
103 424.0000 286.0000
104 144.0000 187.0000
105 -228.0000 -213.0000
106 -356.0000 -128.0000
107 -237.0000 108.0000
108  54.0000 -50.0000
109  42.0000 468.0000
110 310.0000 261.0000
111 273.0000 -453.0000
112  22.0000 247.0000
113 192.0000 -221.0000
114 494.0000 -202.0000
115 -203.0000  92.0000
116 -263.0000 129.0000
117 -59.0000 -27.0000
118 -409.0000 -31.0000
119   0.0000 403.0000
120  21.0000  -8.0000
121 282.0000 -449.0000
122 298.0000 292.0000
123 -193.0000 -301.0000
124 204.0000 -160.0000
125 223.0000 197.0000
126 130.0000 277.0000
127 -117.0000 -64.0000
128 -13.0000 407.0000
129 -473.0000 -497.0000
130 167.0000 -366.0000
131 -184.0000  -5.0000
132 244.0000 447.0000
133 335.0000  15.0000
134 -324.0000 121.0000
135 -458.0000 -246.0000
136 -460.0000 445.0000
137 -125.0000 -380.0000
138  64.0000 -287.0000
139  43.0000 157.0000
140 -107.0000 -364.0000
141 -191.0000 -142.0000
142 304.0000 -361.0000
143 -273.0000  89.0000
144 254.0000 -486.0000
145 -245.0000 -40.0000
146 379.0000 282.0000
147 158.0000  33.0000
148 150.0000 -174.0000
149 210.0000 -415.0000
150 -171.0000 335.0000
151 -278.0000 433.0000
152 -331.0000 417.0000
153 -282.0000 283.0000
154  85.0000 -106.0000
155 -314.0000   9.0000
156 451.0000 -351.0000
157 -313.0000 499.0000
158 279.0000 107.0000
159 292.0000 320.0000
160 167.0000 137.0000
161 -17.0000 383.0000
162 306.0000 159.0000
163 -136.0000 -434.0000
164 -455.0000 -342.0000
165 309.0000 -246.0000
166 -85.0000 -124.0000
167 235.0000 -496.0000
168 -408.0000 244.0000
169 -149.0000 180.0000
170 104.0000 140.0000
171 -23.0000 448.0000
172 117.0000 351.0000
173 153.0000 216.0000
174 -130.0000 450.0000
175  19.0000 211.0000
176 286.0000 379.0000
177 -47.0000 -180.0000
178 -43.0000 223.0000
179 -394.0000 -310.0000
180 -108.0000 264.0000
181 -287.0000 484.0000
182 166.0000 319.0000
183 -199.0000 305.0000
184 -59.0000 -42.0000
185 -44.0000 -465.0000
186 -301.0000 -398.0000
187 411.0000 242.0000
188 -349.0000 375.0000
189 144.0000 -472.0000
190 423.0000 284.0000
191 139.0000  83.0000
192 315.0000 432.0000
193  49.0000 207.0000
194 474.0000 -20.0000
195 -225.0000 -228.0000
196 407.0000 -109.0000
197 213.0000 -451.0000
198 343.0000 -215.0000
199 -66.0000 138.0000
200 101.0000 -16.0000
DISPLAY_DATA_SECTION:
 1  250  250
 2  196  288
 3  436   34
 4  221  444
 5  393  454
 6  462  334
 7  279    1
 8  360  309
 9  485  440
10   34   39
11  402  221
12  478  348
13  496  384
14  390  120
15  164    8
16  381  121
17   36  326
18  425  407
19  489  310
20   42  148
21  260  204
22  306  368
23  278  473
24   89  185
25  376  236
26   56  128
27  214  356
28  373   81
29  285  389
30  425   21
31  376  300
32  217  263
33  412  238
34   73  236
35  416  385
36  388  191
37   55  225
38  345    1
39  344  226
40  430  174
41   89    1
42   90  374
43  225  132
44  321  147
45   20  432
46   65   56
47  405  382
48  441  274
49   18   38
50   46  427
51  304  247
52   45  137
53  107  403
54  331  157
55  126  447
56  488  310
57  483   20
58  327  371
59   88   70
60  108  417
61  189  293
62  153  435
63  387  203
64   75  424
65  220  212
66  204  136
67  138  449
68  410   13
69  331  412
70   82   69
71  397  193
72   92   93
73    6  251
74  376  105
75  235  173
76  357  461
77  137  196
78  450  144
79  122  310
80   21  443
81  434   77
82  288  328
83   31  215
84  335  428
85  231  142
86  185  239
87  448   39
88   60  256
89  194   99
90  144  483
91  225   82
92  300  192
93  259  273
94  247  321
95  270  155
96  133  295
97  162  125
98  106  201
99  104  215
100  165  222
101  479    3
102  406  445
103  462  393
104  322  343
105  136  143
106   72  186
107  131  304
108  277  225
109  271  484
110  405  380
111  386   23
112  261  373
113  346  139
114  497  149
115  148  296
116  118  314
117  220  236
118   45  234
119  250  451
120  260  246
121  391   25
122  399  396
123  153   99
124  352  170
125  361  348
126  315  388
127  191  218
128  243  453
129   13    1
130  333   67
131  158  247
132  372  473
133  417  257
134   88  310
135   21  127
136   20  472
137  187   60
138  282  106
139  271  328
140  196   68
141  154  179
142  402   69
143  113  294
144  377    7
145  127  230
146  439  391
147  329  266
148  325  163
149  355   42
150  164  417
151  111  466
152   84  458
153  109  391
154  292  197
155   93  254
156  475   74
157   93  499
158  389  303
159  396  410
160  333  318
161  241  441
162  403  329
163  182   33
164   22   79
165  404  127
166  207  188
167  367    2
168   46  372
169  175  340
170  302  320
171  238  474
172  308  425
173  326  358
174  185  475
175  259  355
176  393  439
177  226  160
178  228  361
179   53   95
180  196  382
181  106  492
182  333  409
183  150  402
184  220  229
185  228   17
186   99   51
187  455  371
188   75  437
189  322   14
190  461  392
191  319  291
192  407  466
193  274  353
194  487  240
195  137  136
196  453  195
197  356   24
198  421  142
199  217  319
200  300  242
DEMAND_SECTION
1 4
2 -2
3 2
4 8
5 -6
6 -1
7 -6
8 5
9 6
10 -9
11 -2
12 7
13 7
14 -1
15 2
16 4
17 4
18 4
19 10
20 -5
21 -6
22 0
23 0
24 -9
25 -7
26 -10
27 -4
28 5
29 8
30 -5
31 10
32 -8
33 -4
34 -1
35 7
36 -4
37 8
38 -1
39 -4
40 2
41 0
42 -5
43 1
44 -2
45 6
46 0
47 -5
48 0
49 -9
50 -4
51 -4
52 -4
53 -1
54 -9
55 0
56 8
57 7
58 0
59 -9
60 -3
61 -8
62 -1
63 -7
64 -1
65 -9
66 -10
67 -10
68 3
69 8
70 0
71 10
72 -2
73 0
74 -2
75 0
76 0
77 8
78 0
79 -8
80 2
81 -4
82 -3
83 -9
84 8
85 -3
86 9
87 -2
88 8
89 3
90 7
91 5
92 3
93 -4
94 -1
95 6
96 -3
97 6
98 3
99 10
100 0
101 -2
102 -3
103 0
104 9
105 1
106 -7
107 -4
108 -9
109 2
110 -5
111 0
112 -2
113 8
114 10
115 -1
116 4
117 6
118 -8
119 -6
120 -3
121 8
122 -6
123 -7
124 -1
125 2
126 4
127 0
128 -10
129 9
130 -8
131 3
132 3
133 -2
134 6
135 10
136 0
137 -5
138 -5
139 5
140 5
141 10
142 -2
143 -1
144 0
145 -7
146 8
147 10
148 9
149 0
150 6
151 10
152 -5
153 -4
154 -3
155 -2
156 -1
157 0
158 0
159 8
160 8
161 -4
162 0
163 -4
164 -5
165 -2
166 5
167 6
168 -9
169 9
170 8
171 -2
172 -2
173 -8
174 -7
175 -2
176 -2
177 -4
178 6
179 6
180 -5
181 -5
182 6
183 -9
184 -5
185 -9
186 3
187 8
188 -6
189 0
190 -4
191 -7
192 1
193 8
194 0
195 5
196 -1
197 4
198 10
199 -6
200 -9
EOF